60
7
5
1
36 30
100 45
130 50
40 130
70 110
135 100
36 30
100 45
130 50
40 130
70 110
135 100
133 158
20 107
107 150
88 46
134 11
86 46
29 115
19 101
23 20
61 35
156 139
79 57
100 44
71 37
66 33
130 28
117 48
94 94
35 90
9 93
90 29
2 46
11 26
88 142
91 13
152 75
150 41
41 19
64 102
98 48
138 0
22 123
74 132
110 40
118 51
51 30
24 62
62 138
25 26
83 112
33 81
19 79
64 104
107 91
144 49
144 90
36 136
107 25
129 22
133 68
53 62
54 131
117 92
86 129
89 103
14 133
52 75
11 28
42 135
130 54
